p cnf 4 2

c Let's be very explicit for now to keep the code simple

w 1 0.5

w 2 1 0.6
w 2 -1 0.1

w 3 1 0.7
w 3 -1 0.2

w 4 2 3 1
w 4 2 -3 0.5
w 4 -2 3 0.4
w 4 -2 -3 0

c We're calculating the probability of Rest in the paper by Sang et al.

4 0
2 1 0